\* min max line *\
Minimize
OBJ: - C + X_i + Y_i
Subject To
_C1: - C + X_i + 3 Y_i <= -10
_C2: - C + 2 X_i + 5 Y_i <= -10
_C3: - C + 3 X_i + 7 Y_i <= -10
_C4: - C + 5 X_i + 11 Y_i <= -10
_C5: - C + 7 X_i + 14 Y_i <= -10
_C6: - C + 8 X_i + 15 Y_i <= -10
_C7: - C + 10 X_i + 19 Y_i <= -10
_C8: X_i >= 1
_C9: Y_i >= 1
Bounds
C free
X_i free
Y_i free
End
